Ni  P  H 
 1.0000000000000000
    11.7365814896694367    0.0000000000000000    0.0000000000000000
    -5.8682907448347157   10.1641777236399449    0.0000000000000000
     0.0000000000000000    0.0000000000000000   30.1475327762758987
 Ni  P   H  
  84  44   9
Selective dynamics
Cartesian
  2.3412774936450105  0.0000000000000000  1.7398272513048008   F   F   F
  7.7332863007811552  3.0289659683735328  8.3723657672000265   T   T   T
  4.6090898346027167  1.9604923323836574  8.3568124777610322   T   T   T
  3.6896426408437089  3.7581337058747932  6.7362908164751429   T   T   T
  8.2095682384797293  0.0000000000000000  1.7398272513048008   F   F   F
  3.6985126031090538  6.4150036068600773  6.7323570369452836   T   T   T
  4.7063981491465032  8.1578394097316487  5.0728938134709205   T   T   T
  1.7839102282172123  7.1113065825673258  5.0621915700930460   T   T   T
  0.7621143406129387  8.8139559342433085  9.9544078493698613   T   T   T
  3.6894440876665304  6.4653321842274565  9.9559089136658958   T   T   T
  7.2517194092684685  5.0576915395145496  9.9840314849576615   T   T   T
  7.2499960060871782  5.0820888618199724  0.1387334225069478   F   F   F
  3.7103654279998111  6.4265414359427142  0.1387334225069478   F   F   F
  0.7762200555824940  8.8197251495171312  0.1387334225069478   F   F   F
  1.7635066255948557  7.1096946486253119  1.7398272513048008   F   F   F
  4.6976519980122147  8.1365719368346063  1.7398272513048008   F   F   F
  1.4150804039400513  5.0834637584764932  6.6866986947844129   T   T   T
 -0.6115282319961799  5.0978490500076097  5.0586017298411985   T   T   T
 -1.1706387468225030  8.1365719368346063  1.7398272513048008   F   F   F
 -4.1047841192398629  7.1096946486253119  1.7398272513048008   F   F   F
  8.2216860023838318  0.0262840307923549  8.4077482778104731   T   T   T
 10.2145097619753766  0.0000000000000000  3.3837512821226605   F   F   F
  6.6293266086817493  1.3181527825651267  3.3837512821226605   F   F   F
  3.6951812362644318  3.7639360792547731  3.3837512821226605   F   F   F
  0.7633839389428808  8.8436544433296369  6.7289115575130056   T   T   T
  1.6933977618782237  7.0569522016914030  8.3528210977411739   T   T   T
  4.7097524774332120  8.1621891893409728  8.3759981325807153   T   T   T
  5.2514621094244625  5.0907140448633443  8.3968271433309951   T   T   T
  7.2803643895580183  5.0820888618199724  3.3837512821226605   F   F   F
  3.6951812362643910  6.4002416443850993  3.3837512821226605   F   F   F
  0.7610358638470324  8.8460249410748180  3.3837512821226605   F   F   F
 10.2163621159413918  0.0155262372640012  6.7459206463188979   T   T   T
  2.3322218489288051 10.1615629536081222  5.0741788795299811   T   T   T
 -5.0920706892522247  8.8197251495171312  0.1387334225069478   F   F   F
  7.6317973704295730  3.0544830750146330  1.7398272513048008   F   F   F
  3.7103654279998102  3.7376362876972311  0.1387334225069478   F   F   F
  6.6445108004172520  1.3444525741227416  0.1387334225069478   F   F   F
 10.1841413785045365  0.0000000000000000  0.1387334225069478   F   F   F
 10.2490465222347016  0.0348893897546690 10.0267739292844098   T   T   T
  6.6337491351157301  1.3620834631635728  9.9601152746708266   T   T   T
  3.6685977193780293  3.7035273108110864  9.9553810312463415   T   T   T
  4.7186174458003753  2.0324986738823534  5.0623778869003342   T   T   T
  7.6192197133149762  3.0829293449776753  5.0685406589820090   T   T   T
  6.6363966110088617  1.3306822400318363  6.7298822925575807   T   T   T
  4.6976519980122138  2.0276057868053390  1.7398272513048008   F   F   F
 -2.1579253168349077  6.4265414359427142  0.1387334225069478   F   F   F
  1.3817052612524603  5.0820888618199724  0.1387334225069478   F   F   F
  1.5480649282723724  5.0746370600547221 10.1768689626274416   T   T   T
  4.3462190171405748  0.0000000000000000  3.3837512821226605   F   F   F
  0.7610358638471135  1.3181527825651267  3.3837512821226605   F   F   F
 -2.1731095085702865  3.7639360792547731  3.3837512821226605   F   F   F
  5.2754228660623710  5.0820888618199724  1.7398272513048008   F   F   F
  0.7584587565870966  1.3190181791899289  6.7265698219902053   T   T   T
  4.3486711331803649  0.0041273806275163  6.6789629510387449   T   T   T
 -3.5507096451541647 10.1597679410573907  5.0596903738349353   T   T   T
  1.7635066255948548  3.0544830750146330  1.7398272513048008   F   F   F
 -1.1706387468225046  2.0276057868053390  1.7398272513048008   F   F   F
 -2.1579253168349082  3.7376362876972311  0.1387334225069478   F   F   F
  0.7762200555824502  1.3444525741227416  0.1387334225069478   F   F   F
  4.3158506336698181  0.0000000000000000  0.1387334225069478   F   F   F
  4.4767842399708995  0.0006747987019827 10.1610180648281432   T   T   T
  0.7614217012847255  1.2983968264451271 10.0296178174073649   T   T   T
 -2.1988096550570844  3.8773952434376540 10.1785233428281856   T   T   T
  2.4162795055495967  0.0009099149217975  8.4205612424488550   T   T   T
 10.5650207767714797  2.0063313460098087  5.0655519255261012   T   T   T
  1.6536959408674536  3.1017831974750978  8.3804963889276589   T   T   T
 -2.1663034285821059  3.7780883761629891  6.7036793271026109   T   T   T
 -2.0858828867557260  6.4186668001977782  9.9716378843503524   T   T   T
 -5.0835217913739674  8.8800682112068436 10.0217332342888010   T   T   T
  7.6257419880500041  7.0871427738358568  5.0777508860694862   T   T   T
 -1.1553360656213976  8.1372461002681877  5.0634049836752251   T   T   T
 -2.1665985636259575  6.3991278580275539  6.7417831765332386   T   T   T
 -5.1072548809876857  8.8460249410748180  3.3837512821226605   F   F   F
 -2.1731095085703278  6.4002416443850993  3.3837512821226605   F   F   F
  1.4120736447232169  5.0820888618199724  3.3837512821226605   F   F   F
 -0.5233156636023831  4.9782209081212514  8.4200298616440801   T   T   T
 -1.2441293185335960  8.2025781831083826  8.3528715764366357   T   T   T
 -4.0790002343887579  7.1169668612916936  8.4309026526477524   T   T   T
 -5.0924558152879849  8.8468366239879437  6.7438792229570170   T   T   T
 -0.5928678787723474  5.0820888618199724  1.7398272513048008   F   F   F
  5.2677153100150242  5.0801430615389949  5.0791271821188948   T   T   T
  7.2734434430792669  5.0835743352387706  6.7631119375189925   T   T   T
 -1.1788804585516346  2.1032422671046525  8.4339078315127658   T   T   T
  1.7811365672962955  3.0594956392811761  5.0633607633566022   T   T   T
  5.8682907741761561  6.7761184654863440  0.0000000000000000   F   F   F
  2.9341453430759254  8.4701481199735724  0.0000000000000000   F   F   F
  5.8771143124902521  6.8028696154986292 10.1138814533425627   T   T   T
  5.8682907741761561  6.7761184654863440  3.3837512821226605   F   F   F
  2.9482137282944505  5.0846285462080791  5.0509296130745609   T   T   T
  2.9108218868545945  5.0814402933830127  8.4191765569909887   T   T   T
  5.8722806712828488  6.7818487015991380  6.7746319622079465   T   T   T
  2.9343768283341869  8.4793838776804762  6.7839066709992508   T   T   T
  2.9341453724173605  5.0820888618199724  1.6619386264097640   F   F   F
  5.8375056123369182  3.3897306500875986 10.1225136463984580   T   T   T
 -2.8934071537615962  8.4868044128893896 10.1621318124694451   T   T   T
  5.8682907448347184  0.0000000000000000  1.6619386264097640   F   F   F
 -0.0013401106272462  3.3912536414500210  6.7262479244682210   T   T   T
  2.9237901656104128  1.6933060757425527  6.7541440367775785   T   T   T
  0.0215024130110181  0.0238284254535561  8.4238677781253610   T   T   T
  5.8658578831110555 10.1618138514316492  5.0545867626300920   T   T   T
  2.9341454017587960  1.6940296036663713  3.3837512821226605   F   F   F
  2.9382670113357192  1.6401514949532927 10.1802963868288927   T   T   T
 -0.0000000293414354  3.3880592581536009  0.0000000000000000   F   F   F
  2.9341454017587960  1.6940296036663713  0.0000000000000000   F   F   F
  0.0000000000000000  0.0000000000000000  1.6619386264097640   F   F   F
 -0.0000000293414354  3.3880592581536009  3.3837512821226605   F   F   F
  0.0251298030031323  3.3924856943778177 10.2097221030208924   T   T   T
 -2.9293392773591038  8.4729602856667796  6.7430149598878382   T   T   T
 -0.0054569670731143  6.7723660868318216  6.7714063373471927   T   T   T
 -2.8998904368337186  5.0771344488039505  8.4396742418194979   T   T   T
  5.8682907154932833  3.3880592581536009  3.3837512821226605   F   F   F
  8.7914803944170927  5.0914334513780144  5.0556423287468419   T   T   T
  0.0713203155711228  6.7467097813760439 10.1753636938236998   T   T   T
 -2.9341454017587929  8.4701481199735724  0.0000000000000000   F   F   F
  0.0000000293414380  6.7761184654863440  0.0000000000000000   F   F   F
 -2.9341453724173578  5.0820888618199724  1.6619386264097640   F   F   F
 -2.9341454017587929  8.4701481199735724  3.3837512821226605   F   F   F
  2.9341453430759254  8.4701481199735724  3.3837512821226605   F   F   F
  5.8653114771611019  3.3871828900394747  6.8068275447844613   T   T   T
  8.8121042123434616  1.7056570726770839  6.7507090650715114   T   T   T
  5.8607800220272788  0.0073965672863417  8.4092836833258247   T   T   T
  5.8814894804408047  0.0030286395834406  5.0481832692467403   T   T   T
  8.8024361465935144  1.6940296036663713  3.3837512821226605   F   F   F
  8.8214956322574274  1.7324343911298254 10.1661793741638355   T   T   T
  5.8682907154932833  3.3880592581536009  0.0000000000000000   F   F   F
  8.8024361465935144  1.6940296036663713  0.0000000000000000   F   F   F
  0.0000000293414380  6.7761184654863440  3.3837512821226605   F   F   F
  2.9407163391466691  8.5231320486457367 10.1250170910163142   T   T   T
  2.5337224027474630  6.0857282400575103 11.0316490236268727   T   T   T
  8.1714820032716915  4.2178473519639637 11.0385775600405989   T   T   T
 -5.8589509122276242 10.1581125152514620 10.9938763975978624   T   T   T
 -0.4058875044362579  9.1675191553175157 11.0254068337600604   T   T   T
  2.5244010648221797  4.0675741792209745 11.0413872211181125   T   T   T
  5.4638700726511233  1.0060378703590040 11.0240421846502858   T   T   T
 -1.8355484185148101  5.2291470947071277 11.0445306402503540   T   T   T
  2.4162795055495967  0.0009099149217975 10.4205612424488550   T   T   T
  5.2514621094244625  5.0907140448633443 11.0468271433309951   T   T   T
